TYPE : Vertex Cover
DIMENSION: 31
EDGE_DATA_SECTION:
0 7
0 10
0 19
0 23
0 29
1 2
1 15
1 16
1 28
2 4
2 9
2 12
2 13
2 16
2 17
2 19
2 21
2 24
3 11
3 14
3 17
3 20
3 21
3 27
4 13
4 19
4 29
4 30
5 9
5 11
5 15
5 21
5 22
6 8
6 10
6 20
6 26
6 27
6 30
7 8
7 9
7 14
7 17
7 24
8 12
8 17
8 22
9 14
9 18
9 28
10 13
10 19
10 26
10 29
11 16
11 18
11 19
12 15
12 17
12 23
13 16
13 17
13 19
13 24
13 25
13 26
14 19
14 24
15 20
15 26
15 29
16 22
16 29
16 30
17 19
17 23
17 29
18 24
18 25
18 29
19 22
19 28
19 29
20 21
21 23
21 25
21 26
23 27
26 29
-1
VERTEX_DEGREE:
5.0 4.0 10.0 6.0 5.0 5.0 6.0 6.0 5.0 6.0 6.0 5.0 5.0 9.0 5.0 6.0 7.0 9.0 5.0 11.0 4.0 7.0 4.0 5.0 5.0 3.0 6.0 3.0 3.0 9.0 3.0
VERTEX_COVER:
2 3 4 5 6 7 8 10 13 14 15 16 17 18 19 21 23 28 29
EOF
